[[69, 78, 70, 71, 72, 81, 80, 79, 88, 89, 90, 99, 98, 97, 96, 87, 95, 86], [85, 94, 93, 92, 91, 82, 83, 84, 73, 74, 75, 76, 77], [68, 67, 66, 59, 58, 49, 57, 56, 65, 64, 55, 46, 47], [48, 39, 40, 38, 37, 29, 30, 31, 28, 19, 20, 21, 22, 23, 13], [12, 11, 10, 2, 3, 4, 14, 5, 15, 6, 7, 8, 9], [16, 17, 18, 27, 35, 36, 26, 25, 24, 33, 32, 41], [50, 42, 34, 43, 44, 45, 51, 52, 53, 54, 63, 60, 61, 62]]